(set-logic QF_FP)
(set-option :produce-models true)
(set-info :source |Random FP created by PyMPF|)
(set-info :category random)
(set-info :status sat)
(declare-const x Float32)
(assert (= x ((_ to_fp 8 24) #xCA83F343)))
(declare-const y Float32)
(assert (= y ((_ to_fp 8 24) #xCD354802)))
(declare-const z Float32)
(assert (= z ((_ to_fp 8 24) #xBDC3C811)))
(declare-const result Float32)
(assert (= result (fp.fma RTN x y z)))
(assert (= result (fp #b0 #b10110000 #b01110101110000000110111)))
(check-sat)
(exit)
